NAME: 880.vrp-C177-R5
TYPE: SoftCluVRP
DIMENSION:  881 
VEHICLES:  11 
GVRP_SETS:  177 
CAPACITY:  1800 
EDGE_WEIGHT_TYPE: EUC_2D
NODE_COORD_SECTION 
1 0.000000 0.000000
2 30.000000 0.000000
3 29.630699 4.693000
4 28.531700 9.270500
5 26.730200 13.619700
6 24.270500 17.633600
7 21.213200 21.213200
8 17.633600 24.270500
9 13.619700 26.730200
10 9.270500 28.531700
11 4.693000 29.630699
12 0.000000 30.000000
13 -4.693000 29.630699
14 -9.270500 28.531700
15 -13.619700 26.730200
16 -17.633600 24.270500
17 -21.213200 21.213200
18 -24.270500 17.633600
19 -26.730200 13.619700
20 -28.531700 9.270500
21 -29.630699 4.693000
22 -30.000000 0.000000
23 -29.630699 -4.693000
24 -28.531700 -9.270500
25 -26.730200 -13.619700
26 -24.270500 -17.633600
27 -21.213200 -21.213200
28 -17.633600 -24.270500
29 -13.619700 -26.730200
30 -9.270500 -28.531700
31 -4.693000 -29.630699
32 -0.000000 -30.000000
33 4.693000 -29.630699
34 9.270500 -28.531700
35 13.619700 -26.730200
36 17.633600 -24.270500
37 21.213200 -21.213200
38 24.270500 -17.633600
39 26.730200 -13.619700
40 28.531700 -9.270500
41 29.630699 -4.693000
42 60.000000 0.000000
43 59.261299 9.386100
44 57.063400 18.541000
45 53.460400 27.239401
46 48.541000 35.267101
47 42.426399 42.426399
48 35.267101 48.541000
49 27.239401 53.460400
50 18.541000 57.063400
51 9.386100 59.261299
52 0.000000 60.000000
53 -9.386100 59.261299
54 -18.541000 57.063400
55 -27.239401 53.460400
56 -35.267101 48.541000
57 -42.426399 42.426399
58 -48.541000 35.267101
59 -53.460400 27.239401
60 -57.063400 18.541000
61 -59.261299 9.386100
62 -60.000000 0.000000
63 -59.261299 -9.386100
64 -57.063400 -18.541000
65 -53.460400 -27.239401
66 -48.541000 -35.267101
67 -42.426399 -42.426399
68 -35.267101 -48.541000
69 -27.239401 -53.460400
70 -18.541000 -57.063400
71 -9.386100 -59.261299
72 -0.000000 -60.000000
73 9.386100 -59.261299
74 18.541000 -57.063400
75 27.239401 -53.460400
76 35.267101 -48.541000
77 42.426399 -42.426399
78 48.541000 -35.267101
79 53.460400 -27.239401
80 57.063400 -18.541000
81 59.261299 -9.386100
82 90.000000 0.000000
83 88.891998 14.079100
84 85.595100 27.811501
85 80.190598 40.859100
86 72.811501 52.900700
87 63.639599 63.639599
88 52.900700 72.811501
89 40.859100 80.190598
90 27.811501 85.595100
91 14.079100 88.891998
92 0.000000 90.000000
93 -14.079100 88.891998
94 -27.811501 85.595100
95 -40.859100 80.190598
96 -52.900700 72.811501
97 -63.639599 63.639599
98 -72.811501 52.900700
99 -80.190598 40.859100
100 -85.595100 27.811501
101 -88.891998 14.079100
102 -90.000000 0.000000
103 -88.891998 -14.079100
104 -85.595100 -27.811501
105 -80.190598 -40.859100
106 -72.811501 -52.900700
107 -63.639599 -63.639599
108 -52.900700 -72.811501
109 -40.859100 -80.190598
110 -27.811501 -85.595100
111 -14.079100 -88.891998
112 -0.000000 -90.000000
113 14.079100 -88.891998
114 27.811501 -85.595100
115 40.859100 -80.190598
116 52.900700 -72.811501
117 63.639599 -63.639599
118 72.811501 -52.900700
119 80.190598 -40.859100
120 85.595100 -27.811501
121 88.891998 -14.079100
122 120.000000 0.000000
123 118.522598 18.772100
124 114.126801 37.082001
125 106.920799 54.478901
126 97.082001 70.534203
127 84.852798 84.852798
128 70.534203 97.082001
129 54.478901 106.920799
130 37.082001 114.126801
131 18.772100 118.522598
132 0.000000 120.000000
133 -18.772100 118.522598
134 -37.082001 114.126801
135 -54.478901 106.920799
136 -70.534203 97.082001
137 -84.852798 84.852798
138 -97.082001 70.534203
139 -106.920799 54.478901
140 -114.126801 37.082001
141 -118.522598 18.772100
142 -120.000000 0.000000
143 -118.522598 -18.772100
144 -114.126801 -37.082001
145 -106.920799 -54.478901
146 -97.082001 -70.534203
147 -84.852798 -84.852798
148 -70.534203 -97.082001
149 -54.478901 -106.920799
150 -37.082001 -114.126801
151 -18.772100 -118.522598
152 -0.000000 -120.000000
153 18.772100 -118.522598
154 37.082001 -114.126801
155 54.478901 -106.920799
156 70.534203 -97.082001
157 84.852798 -84.852798
158 97.082001 -70.534203
159 106.920799 -54.478901
160 114.126801 -37.082001
161 118.522598 -18.772100
162 150.000000 0.000000
163 148.153305 23.465200
164 142.658493 46.352501
165 133.651001 68.098602
166 121.352501 88.167801
167 106.066002 106.066002
168 88.167801 121.352501
169 68.098602 133.651001
170 46.352501 142.658493
171 23.465200 148.153305
172 0.000000 150.000000
173 -23.465200 148.153305
174 -46.352501 142.658493
175 -68.098602 133.651001
176 -88.167801 121.352501
177 -106.066002 106.066002
178 -121.352501 88.167801
179 -133.651001 68.098602
180 -142.658493 46.352501
181 -148.153305 23.465200
182 -150.000000 0.000000
183 -148.153305 -23.465200
184 -142.658493 -46.352501
185 -133.651001 -68.098602
186 -121.352501 -88.167801
187 -106.066002 -106.066002
188 -88.167801 -121.352501
189 -68.098602 -133.651001
190 -46.352501 -142.658493
191 -23.465200 -148.153305
192 -0.000000 -150.000000
193 23.465200 -148.153305
194 46.352501 -142.658493
195 68.098602 -133.651001
196 88.167801 -121.352501
197 106.066002 -106.066002
198 121.352501 -88.167801
199 133.651001 -68.098602
200 142.658493 -46.352501
201 148.153305 -23.465200
202 180.000000 0.000000
203 177.783905 28.158199
204 171.190201 55.623100
205 160.381195 81.718300
206 145.623093 105.801300
207 127.279198 127.279198
208 105.801300 145.623093
209 81.718300 160.381195
210 55.623100 171.190201
211 28.158199 177.783905
212 0.000000 180.000000
213 -28.158199 177.783905
214 -55.623100 171.190201
215 -81.718300 160.381195
216 -105.801300 145.623093
217 -127.279198 127.279198
218 -145.623093 105.801300
219 -160.381195 81.718300
220 -171.190201 55.623100
221 -177.783905 28.158199
222 -180.000000 0.000000
223 -177.783905 -28.158199
224 -171.190201 -55.623100
225 -160.381195 -81.718300
226 -145.623093 -105.801300
227 -127.279198 -127.279198
228 -105.801300 -145.623093
229 -81.718300 -160.381195
230 -55.623100 -171.190201
231 -28.158199 -177.783905
232 -0.000000 -180.000000
233 28.158199 -177.783905
234 55.623100 -171.190201
235 81.718300 -160.381195
236 105.801300 -145.623093
237 127.279198 -127.279198
238 145.623093 -105.801300
239 160.381195 -81.718300
240 171.190201 -55.623100
241 177.783905 -28.158199
242 210.000000 0.000000
243 207.414597 32.851200
244 199.721893 64.893600
245 187.111404 95.337997
246 169.893600 123.434898
247 148.492401 148.492401
248 123.434898 169.893600
249 95.337997 187.111404
250 64.893600 199.721893
251 32.851200 207.414597
252 0.000000 210.000000
253 -32.851200 207.414597
254 -64.893600 199.721893
255 -95.337997 187.111404
256 -123.434898 169.893600
257 -148.492401 148.492401
258 -169.893600 123.434898
259 -187.111404 95.337997
260 -199.721893 64.893600
261 -207.414597 32.851200
262 -210.000000 0.000000
263 -207.414597 -32.851200
264 -199.721893 -64.893600
265 -187.111404 -95.337997
266 -169.893600 -123.434898
267 -148.492401 -148.492401
268 -123.434898 -169.893600
269 -95.337997 -187.111404
270 -64.893600 -199.721893
271 -32.851200 -207.414597
272 -0.000000 -210.000000
273 32.851200 -207.414597
274 64.893600 -199.721893
275 95.337997 -187.111404
276 123.434898 -169.893600
277 148.492401 -148.492401
278 169.893600 -123.434898
279 187.111404 -95.337997
280 199.721893 -64.893600
281 207.414597 -32.851200
282 240.000000 0.000000
283 237.045197 37.544300
284 228.253601 74.164101
285 213.841599 108.957703
286 194.164093 141.068497
287 169.705597 169.705597
288 141.068497 194.164093
289 108.957703 213.841599
290 74.164101 228.253601
291 37.544300 237.045197
292 0.000000 240.000000
293 -37.544300 237.045197
294 -74.164101 228.253601
295 -108.957703 213.841599
296 -141.068497 194.164093
297 -169.705597 169.705597
298 -194.164093 141.068497
299 -213.841599 108.957703
300 -228.253601 74.164101
301 -237.045197 37.544300
302 -240.000000 0.000000
303 -237.045197 -37.544300
304 -228.253601 -74.164101
305 -213.841599 -108.957703
306 -194.164093 -141.068497
307 -169.705597 -169.705597
308 -141.068497 -194.164093
309 -108.957703 -213.841599
310 -74.164101 -228.253601
311 -37.544300 -237.045197
312 -0.000000 -240.000000
313 37.544300 -237.045197
314 74.164101 -228.253601
315 108.957703 -213.841599
316 141.068497 -194.164093
317 169.705597 -169.705597
318 194.164093 -141.068497
319 213.841599 -108.957703
320 228.253601 -74.164101
321 237.045197 -37.544300
322 270.000000 0.000000
323 266.675903 42.237301
324 256.785309 83.434601
325 240.571793 122.577400
326 218.434601 158.701996
327 190.918793 190.918793
328 158.701996 218.434601
329 122.577400 240.571793
330 83.434601 256.785309
331 42.237301 266.675903
332 0.000000 270.000000
333 -42.237301 266.675903
334 -83.434601 256.785309
335 -122.577400 240.571793
336 -158.701996 218.434601
337 -190.918793 190.918793
338 -218.434601 158.701996
339 -240.571793 122.577400
340 -256.785309 83.434601
341 -266.675903 42.237301
342 -270.000000 0.000000
343 -266.675903 -42.237301
344 -256.785309 -83.434601
345 -240.571793 -122.577400
346 -218.434601 -158.701996
347 -190.918793 -190.918793
348 -158.701996 -218.434601
349 -122.577400 -240.571793
350 -83.434601 -256.785309
351 -42.237301 -266.675903
352 -0.000000 -270.000000
353 42.237301 -266.675903
354 83.434601 -256.785309
355 122.577400 -240.571793
356 158.701996 -218.434601
357 190.918793 -190.918793
358 218.434601 -158.701996
359 240.571793 -122.577400
360 256.785309 -83.434601
361 266.675903 -42.237301
362 300.000000 0.000000
363 296.306488 46.930302
364 285.316986 92.705101
365 267.302002 136.197098
366 242.705093 176.335602
367 212.132004 212.132004
368 176.335602 242.705093
369 136.197098 267.302002
370 92.705101 285.316986
371 46.930302 296.306488
372 0.000000 300.000000
373 -46.930302 296.306488
374 -92.705101 285.316986
375 -136.197098 267.302002
376 -176.335602 242.705093
377 -212.132004 212.132004
378 -242.705093 176.335602
379 -267.302002 136.197098
380 -285.316986 92.705101
381 -296.306488 46.930302
382 -300.000000 0.000000
383 -296.306488 -46.930302
384 -285.316986 -92.705101
385 -267.302002 -136.197098
386 -242.705093 -176.335602
387 -212.132004 -212.132004
388 -176.335602 -242.705093
389 -136.197098 -267.302002
390 -92.705101 -285.316986
391 -46.930302 -296.306488
392 -0.000000 -300.000000
393 46.930302 -296.306488
394 92.705101 -285.316986
395 136.197098 -267.302002
396 176.335602 -242.705093
397 212.132004 -212.132004
398 242.705093 -176.335602
399 267.302002 -136.197098
400 285.316986 -92.705101
401 296.306488 -46.930302
402 330.000000 0.000000
403 325.937195 51.623402
404 313.848694 101.975601
405 294.032196 149.816895
406 266.975586 193.969101
407 233.345200 233.345200
408 193.969101 266.975586
409 149.816895 294.032196
410 101.975601 313.848694
411 51.623402 325.937195
412 0.000000 330.000000
413 -51.623402 325.937195
414 -101.975601 313.848694
415 -149.816895 294.032196
416 -193.969101 266.975586
417 -233.345200 233.345200
418 -266.975586 193.969101
419 -294.032196 149.816895
420 -313.848694 101.975601
421 -325.937195 51.623402
422 -330.000000 0.000000
423 -325.937195 -51.623402
424 -313.848694 -101.975601
425 -294.032196 -149.816895
426 -266.975586 -193.969101
427 -233.345200 -233.345200
428 -193.969101 -266.975586
429 -149.816895 -294.032196
430 -101.975601 -313.848694
431 -51.623402 -325.937195
432 -0.000000 -330.000000
433 51.623402 -325.937195
434 101.975601 -313.848694
435 149.816895 -294.032196
436 193.969101 -266.975586
437 233.345200 -233.345200
438 266.975586 -193.969101
439 294.032196 -149.816895
440 313.848694 -101.975601
441 325.937195 -51.623402
442 360.000000 0.000000
443 355.567810 56.316399
444 342.380310 111.246101
445 320.762299 163.436600
446 291.246094 211.602707
447 254.558395 254.558395
448 211.602707 291.246094
449 163.436600 320.762299
450 111.246101 342.380310
451 56.316399 355.567810
452 0.000000 360.000000
453 -56.316399 355.567810
454 -111.246101 342.380310
455 -163.436600 320.762299
456 -211.602707 291.246094
457 -254.558395 254.558395
458 -291.246094 211.602707
459 -320.762299 163.436600
460 -342.380310 111.246101
461 -355.567810 56.316399
462 -360.000000 0.000000
463 -355.567810 -56.316399
464 -342.380310 -111.246101
465 -320.762299 -163.436600
466 -291.246094 -211.602707
467 -254.558395 -254.558395
468 -211.602707 -291.246094
469 -163.436600 -320.762299
470 -111.246101 -342.380310
471 -56.316399 -355.567810
472 -0.000000 -360.000000
473 56.316399 -355.567810
474 111.246101 -342.380310
475 163.436600 -320.762299
476 211.602707 -291.246094
477 254.558395 -254.558395
478 291.246094 -211.602707
479 320.762299 -163.436600
480 342.380310 -111.246101
481 355.567810 -56.316399
482 390.000000 0.000000
483 385.198486 61.009399
484 370.911987 120.516602
485 347.492493 177.056305
486 315.516602 229.236206
487 275.771606 275.771606
488 229.236206 315.516602
489 177.056305 347.492493
490 120.516602 370.911987
491 61.009399 385.198486
492 0.000000 390.000000
493 -61.009399 385.198486
494 -120.516602 370.911987
495 -177.056305 347.492493
496 -229.236206 315.516602
497 -275.771606 275.771606
498 -315.516602 229.236206
499 -347.492493 177.056305
500 -370.911987 120.516602
501 -385.198486 61.009399
502 -390.000000 0.000000
503 -385.198486 -61.009399
504 -370.911987 -120.516602
505 -347.492493 -177.056305
506 -315.516602 -229.236206
507 -275.771606 -275.771606
508 -229.236206 -315.516602
509 -177.056305 -347.492493
510 -120.516602 -370.911987
511 -61.009399 -385.198486
512 -0.000000 -390.000000
513 61.009399 -385.198486
514 120.516602 -370.911987
515 177.056305 -347.492493
516 229.236206 -315.516602
517 275.771606 -275.771606
518 315.516602 -229.236206
519 347.492493 -177.056305
520 370.911987 -120.516602
521 385.198486 -61.009399
522 420.000000 0.000000
523 414.829102 65.702499
524 399.443695 129.787094
525 374.222687 190.675995
526 339.787109 246.869797
527 296.984802 296.984802
528 246.869797 339.787109
529 190.675995 374.222687
530 129.787094 399.443695
531 65.702499 414.829102
532 0.000000 420.000000
533 -65.702499 414.829102
534 -129.787094 399.443695
535 -190.675995 374.222687
536 -246.869797 339.787109
537 -296.984802 296.984802
538 -339.787109 246.869797
539 -374.222687 190.675995
540 -399.443695 129.787094
541 -414.829102 65.702499
542 -420.000000 0.000000
543 -414.829102 -65.702499
544 -399.443695 -129.787094
545 -374.222687 -190.675995
546 -339.787109 -246.869797
547 -296.984802 -296.984802
548 -246.869797 -339.787109
549 -190.675995 -374.222687
550 -129.787094 -399.443695
551 -65.702499 -414.829102
552 -0.000000 -420.000000
553 65.702499 -414.829102
554 129.787094 -399.443695
555 190.675995 -374.222687
556 246.869797 -339.787109
557 296.984802 -296.984802
558 339.787109 -246.869797
559 374.222687 -190.675995
560 399.443695 -129.787094
561 414.829102 -65.702499
562 450.000000 0.000000
563 444.459808 70.395500
564 427.975403 139.057602
565 400.952911 204.295700
566 364.057587 264.503387
567 318.198090 318.198090
568 264.503387 364.057587
569 204.295700 400.952911
570 139.057602 427.975403
571 70.395500 444.459808
572 0.000000 450.000000
573 -70.395500 444.459808
574 -139.057602 427.975403
575 -204.295700 400.952911
576 -264.503387 364.057587
577 -318.198090 318.198090
578 -364.057587 264.503387
579 -400.952911 204.295700
580 -427.975403 139.057602
581 -444.459808 70.395500
582 -450.000000 0.000000
583 -444.459808 -70.395500
584 -427.975403 -139.057602
585 -400.952911 -204.295700
586 -364.057587 -264.503387
587 -318.198090 -318.198090
588 -264.503387 -364.057587
589 -204.295700 -400.952911
590 -139.057602 -427.975403
591 -70.395500 -444.459808
592 -0.000000 -450.000000
593 70.395500 -444.459808
594 139.057602 -427.975403
595 204.295700 -400.952911
596 264.503387 -364.057587
597 318.198090 -318.198090
598 364.057587 -264.503387
599 400.952911 -204.295700
600 427.975403 -139.057602
601 444.459808 -70.395500
602 480.000000 0.000000
603 474.090393 75.088501
604 456.507111 148.328201
605 427.683105 217.915405
606 388.328186 282.136902
607 339.411285 339.411285
608 282.136902 388.328186
609 217.915405 427.683105
610 148.328201 456.507111
611 75.088501 474.090393
612 0.000000 480.000000
613 -75.088501 474.090393
614 -148.328201 456.507111
615 -217.915405 427.683105
616 -282.136902 388.328186
617 -339.411285 339.411285
618 -388.328186 282.136902
619 -427.683105 217.915405
620 -456.507111 148.328201
621 -474.090393 75.088501
622 -480.000000 0.000000
623 -474.090393 -75.088501
624 -456.507111 -148.328201
625 -427.683105 -217.915405
626 -388.328186 -282.136902
627 -339.411285 -339.411285
628 -282.136902 -388.328186
629 -217.915405 -427.683105
630 -148.328201 -456.507111
631 -75.088501 -474.090393
632 -0.000000 -480.000000
633 75.088501 -474.090393
634 148.328201 -456.507111
635 217.915405 -427.683105
636 282.136902 -388.328186
637 339.411285 -339.411285
638 388.328186 -282.136902
639 427.683105 -217.915405
640 456.507111 -148.328201
641 474.090393 -75.088501
642 510.000000 0.000000
643 503.721100 79.781601
644 485.038788 157.598694
645 454.413300 231.535202
646 412.598694 299.770508
647 360.624512 360.624512
648 299.770508 412.598694
649 231.535202 454.413300
650 157.598694 485.038788
651 79.781601 503.721100
652 0.000000 510.000000
653 -79.781601 503.721100
654 -157.598694 485.038788
655 -231.535202 454.413300
656 -299.770508 412.598694
657 -360.624512 360.624512
658 -412.598694 299.770508
659 -454.413300 231.535202
660 -485.038788 157.598694
661 -503.721100 79.781601
662 -510.000000 0.000000
663 -503.721100 -79.781601
664 -485.038788 -157.598694
665 -454.413300 -231.535202
666 -412.598694 -299.770508
667 -360.624512 -360.624512
668 -299.770508 -412.598694
669 -231.535202 -454.413300
670 -157.598694 -485.038788
671 -79.781601 -503.721100
672 -0.000000 -510.000000
673 79.781601 -503.721100
674 157.598694 -485.038788
675 231.535202 -454.413300
676 299.770508 -412.598694
677 360.624512 -360.624512
678 412.598694 -299.770508
679 454.413300 -231.535202
680 485.038788 -157.598694
681 503.721100 -79.781601
682 540.000000 0.000000
683 533.351685 84.474602
684 513.570496 166.869202
685 481.143494 245.154907
686 436.869202 317.403992
687 381.837708 381.837708
688 317.403992 436.869202
689 245.154907 481.143494
690 166.869202 513.570496
691 84.474602 533.351685
692 0.000000 540.000000
693 -84.474602 533.351685
694 -166.869202 513.570496
695 -245.154907 481.143494
696 -317.403992 436.869202
697 -381.837708 381.837708
698 -436.869202 317.403992
699 -481.143494 245.154907
700 -513.570496 166.869202
701 -533.351685 84.474602
702 -540.000000 0.000000
703 -533.351685 -84.474602
704 -513.570496 -166.869202
705 -481.143494 -245.154907
706 -436.869202 -317.403992
707 -381.837708 -381.837708
708 -317.403992 -436.869202
709 -245.154907 -481.143494
710 -166.869202 -513.570496
711 -84.474602 -533.351685
712 -0.000000 -540.000000
713 84.474602 -533.351685
714 166.869202 -513.570496
715 245.154907 -481.143494
716 317.403992 -436.869202
717 381.837708 -381.837708
718 436.869202 -317.403992
719 481.143494 -245.154907
720 513.570496 -166.869202
721 533.351685 -84.474602
722 570.000000 0.000000
723 562.982422 89.167603
724 542.102173 176.139694
725 507.873688 258.774597
726 461.139709 335.037598
727 403.050903 403.050903
728 335.037598 461.139709
729 258.774597 507.873688
730 176.139694 542.102173
731 89.167603 562.982422
732 0.000000 570.000000
733 -89.167603 562.982422
734 -176.139694 542.102173
735 -258.774597 507.873688
736 -335.037598 461.139709
737 -403.050903 403.050903
738 -461.139709 335.037598
739 -507.873688 258.774597
740 -542.102173 176.139694
741 -562.982422 89.167603
742 -570.000000 0.000000
743 -562.982422 -89.167603
744 -542.102173 -176.139694
745 -507.873688 -258.774597
746 -461.139709 -335.037598
747 -403.050903 -403.050903
748 -335.037598 -461.139709
749 -258.774597 -507.873688
750 -176.139694 -542.102173
751 -89.167603 -562.982422
752 -0.000000 -570.000000
753 89.167603 -562.982422
754 176.139694 -542.102173
755 258.774597 -507.873688
756 335.037598 -461.139709
757 403.050903 -403.050903
758 461.139709 -335.037598
759 507.873688 -258.774597
760 542.102173 -176.139694
761 562.982422 -89.167603
762 600.000000 0.000000
763 592.612976 93.860703
764 570.633911 185.410202
765 534.603882 272.394287
766 485.410187 352.671204
767 424.264099 424.264099
768 352.671204 485.410187
769 272.394287 534.603882
770 185.410202 570.633911
771 93.860703 592.612976
772 0.000000 600.000000
773 -93.860703 592.612976
774 -185.410202 570.633911
775 -272.394287 534.603882
776 -352.671204 485.410187
777 -424.264099 424.264099
778 -485.410187 352.671204
779 -534.603882 272.394287
780 -570.633911 185.410202
781 -592.612976 93.860703
782 -600.000000 0.000000
783 -592.612976 -93.860703
784 -570.633911 -185.410202
785 -534.603882 -272.394287
786 -485.410187 -352.671204
787 -424.264099 -424.264099
788 -352.671204 -485.410187
789 -272.394287 -534.603882
790 -185.410202 -570.633911
791 -93.860703 -592.612976
792 -0.000000 -600.000000
793 93.860703 -592.612976
794 185.410202 -570.633911
795 272.394287 -534.603882
796 352.671204 -485.410187
797 424.264099 -424.264099
798 485.410187 -352.671204
799 534.603882 -272.394287
800 570.633911 -185.410202
801 592.612976 -93.860703
802 630.000000 0.000000
803 622.243713 98.553703
804 599.165588 194.680695
805 561.334106 286.014008
806 509.680695 370.304688
807 445.477295 445.477295
808 370.304688 509.680695
809 286.014008 561.334106
810 194.680695 599.165588
811 98.553703 622.243713
812 0.000000 630.000000
813 -98.553703 622.243713
814 -194.680695 599.165588
815 -286.014008 561.334106
816 -370.304688 509.680695
817 -445.477295 445.477295
818 -509.680695 370.304688
819 -561.334106 286.014008
820 -599.165588 194.680695
821 -622.243713 98.553703
822 -630.000000 0.000000
823 -622.243713 -98.553703
824 -599.165588 -194.680695
825 -561.334106 -286.014008
826 -509.680695 -370.304688
827 -445.477295 -445.477295
828 -370.304688 -509.680695
829 -286.014008 -561.334106
830 -194.680695 -599.165588
831 -98.553703 -622.243713
832 -0.000000 -630.000000
833 98.553703 -622.243713
834 194.680695 -599.165588
835 286.014008 -561.334106
836 370.304688 -509.680695
837 445.477295 -445.477295
838 509.680695 -370.304688
839 561.334106 -286.014008
840 599.165588 -194.680695
841 622.243713 -98.553703
842 660.000000 0.000000
843 651.874329 103.246696
844 627.697327 203.951202
845 588.064270 299.633698
846 533.951172 387.938293
847 466.690491 466.690491
848 387.938293 533.951172
849 299.633698 588.064270
850 203.951202 627.697327
851 103.246696 651.874329
852 0.000000 660.000000
853 -103.246696 651.874329
854 -203.951202 627.697327
855 -299.633698 588.064270
856 -387.938293 533.951172
857 -466.690491 466.690491
858 -533.951172 387.938293
859 -588.064270 299.633698
860 -627.697327 203.951202
861 -651.874329 103.246696
862 -660.000000 0.000000
863 -651.874329 -103.246696
864 -627.697327 -203.951202
865 -588.064270 -299.633698
866 -533.951172 -387.938293
867 -466.690491 -466.690491
868 -387.938293 -533.951172
869 -299.633698 -588.064270
870 -203.951202 -627.697327
871 -103.246696 -651.874329
872 -0.000000 -660.000000
873 103.246696 -651.874329
874 203.951202 -627.697327
875 299.633698 -588.064270
876 387.938293 -533.951172
877 466.690491 -466.690491
878 533.951172 -387.938293
879 588.064270 -299.633698
880 627.697327 -203.951202
881 651.874329 -103.246696
GVRP_SET_SECTION 
 1 842  802 -1
 2  862  782  822 -1
 3  852  812 -1
 4  872  832 -1
 5  7  2  3  4  5  6  8  9  10  11  12  13  14  26  27  28  29  30  31  32  33  34  35  36  37  38  39  40  41  42  43  44  45  46  47  48  49  50  51  52  80  81 -1
 6  847  807 -1
 7  857  817 -1
 8  867  827 -1
 9  877  837 -1
 10  425  385  386  424  426  465  505 -1
 11  434  394  395  433  435  474  475  514 -1
 12  454  374  414  415  453  455  494  534 -1
 13  444  404  443  445  484  524 -1
 14  529  489  569  609 -1
 15  539  499  579  619 -1
 16  559  479  519  599  639 -1
 17  589  509  549  629 -1
 18  704  624  664  744  784 -1
 19  715  675  755  795 -1
 20  258  218  219  257  259  297  298 -1
 21  725  645  685  765 -1
 22  735  655  695  775 -1
 23  229  187  188  189  227  228  230  231  268  269  270 -1
 24  849  809 -1
 25  859  819 -1
 26  869  789  829 -1
 27  879  839 -1
 28  279  239  240  278  280  318  319 -1
 29  542  462  502  582  622 -1
 30  251  210  211  250  252  290  291  292 -1
 31  632  552  592  672 -1
 32  602  562  642 -1
 33  612  572  652 -1
 34  666  586  626  706  746 -1
 35  367  327  366  368  406  407 -1
 36  431  391  430  432  471  472 -1
 37  607  527  567  647 -1
 38  617  537  577  657 -1
 39  637  557  597  677 -1
 40  204  163  164  202  203  205  243  244 -1
 41  223  182  183  184  185  221  222  224  225  263  264 -1
 42  865  825 -1
 43  874  834 -1
 44  437  396  397  436  438  477  478  517 -1
 45  441  401  402  440  480  481 -1
 46  690  650  730  770 -1
 47  700  660  740  780 -1
 48  720  680  760  800 -1
 49  234  193  194  195  232  233  235  273  274  275 -1
 50  451  411  491  531 -1
 51  428  387  388  427  429  468  469  508 -1
 52  381  341  380  382  421 -1
 53  748  708  788 -1
 54  750  710  790 -1
 55  844  804 -1
 56  854  814 -1
 57  417  377  416  418  457  458  497 -1
 58  723  643  683  763 -1
 59  728  648  688  768 -1
 60  733  653  693  773 -1
 61  738  658  698  778 -1
 62  753  713  793 -1
 63  758  678  718  798 -1
 64  604  564  644 -1
 65  614  574  654 -1
 66  702  662  742 -1
 67  594  554  634  674 -1
 68  135  93  94  95  133  134  136  137  174  175 -1
 69  294  254  293  295  333  334 -1
 70  106  63  64  65  66  67  68  69  70  103  104  105  107  108  109  144  145  146  147  148  186 -1
 71  771  731  811  851 -1
 72  781  701  741  821  861 -1
 73  783  703  743  823  863 -1
 74  796  756  836  876 -1
 75  801  761  841  881 -1
 76  544  464  504  584 -1
 77  547  467  507  587  627 -1
 78  806  766  846 -1
 79  816  776  856 -1
 80  826  786  866 -1
 81  831  791  871 -1
 82  486  446  487  526  566 -1
 83  850  810 -1
 84  860  820 -1
 85  864  824 -1
 86  875  835 -1
 87  880  840 -1
 88  423  383  422  463  503 -1
 89  168  127  128  129  167  169  207  208  209  248 -1
 90  306  226  265  266  267  305  307  346  347 -1
 91  116  72  73  74  75  76  77  78  79  113  114  115  117  118  119  154  155  156  157  158 -1
 92  323  283  284  322  324  362  363  364  403 -1
 93  329  249  288  289  328  330  369 -1
 94  379  338  339  378  419 -1
 95  536  456  496  576  616 -1
 96  556  476  516  596 -1
 97  621  581  661 -1
 98  623  543  583  663 -1
 99  140  99  100  101  102  138  139  141  142  143  178  179  180  181  220 -1
 100  399  358  359  398  400  439 -1
 101  551  511  591  631 -1
 102  561  521  601 -1
 103  686  606  646  726 -1
 104  696  656  736 -1
 105  709  669  749 -1
 106  711  671  751 -1
 107  745  705  785 -1
 108  843  803 -1
 109  845  805 -1
 110  848  808 -1
 111  853  813 -1
 112  855  815 -1
 113  858  818 -1
 114  868  828 -1
 115  870  830 -1
 116  873  833 -1
 117  878  838 -1
 118  722  682  762 -1
 119  724  684  764 -1
 120  727  687  767 -1
 121  729  649  689  769 -1
 122  732  692  772 -1
 123  734  694  774 -1
 124  737  697  777 -1
 125  739  659  699  779 -1
 126  747  667  707  787 -1
 127  752  712  792 -1
 128  754  714  794 -1
 129  757  717  797 -1
 130  759  679  719  799 -1
 131  311  271  272  310  312  351 -1
 132  316  276  315  317  355  356  357 -1
 133  523  483  563  603 -1
 134  533  493  573  613 -1
 135  161  82  83  120  121  122  123  159  160  162  199  200  201  241 -1
 136  325  285  326  365  405 -1
 137  625  545  585  665 -1
 138  651  571  611  691 -1
 139  676  636  716 -1
 140  681  641  721 -1
 141  513  473  512  553 -1
 142  372  331  332  371  373  412  413 -1
 143  448  408  447  449  488 -1
 144  460  420  459  500 -1
 145  565  485  525  605 -1
 146  628  548  588  668 -1
 147  630  590  670 -1
 148  151  71  110  111  112  149  150  152  153  190  191  192 -1
 149  321  242  281  282  320  360  361 -1
 150  336  296  335  337  375  376 -1
 151  344  304  343  345  384 -1
 152  349  308  309  348  350  389  390 -1
 153  353  313  314  352  354  392  393 -1
 154  568  528  608 -1
 155  570  490  530  610 -1
 156  575  495  535  615 -1
 157  578  498  538  618 -1
 158  580  540  620 -1
 159  598  518  558  638 -1
 160  600  520  560  640 -1
 161  633  593  673 -1
 162  300  260  261  299  301  340 -1
 163  595  515  555  635 -1
 164  482  442  522 -1
 165  506  466  546 -1
 166  510  470  550 -1
 167  131  88  89  90  91  92  130  132  170  171  172 -1
 168  213  173  212  214  253 -1
 169  237  196  197  198  236  238  277 -1
 170  246  206  245  247  286  287 -1
 171  302  262  303  342 -1
 172  57  15  16  17  18  19  20  21  22  23  24  25  53  54  55  56  58  59  60  61  62  96  97  98 -1
 173  492  452  532 -1
 174  501  461  541 -1
 175  125  84  85  86  87  124  126  165  166 -1
 176  216  176  177  215  217  255  256 -1
 177  410  370  409  450 -1
 DEMAND_SECTION
 1 20 
 2 30 
 3 60 
 4 60 
 5 840 
 6 60 
 7 20 
 8 60 
 9 20 
 10 90 
 11 140 
 12 120 
 13 160 
 14 40 
 15 120 
 16 150 
 17 40 
 18 150 
 19 120 
 20 110 
 21 40 
 22 120 
 23 230 
 24 20 
 25 60 
 26 30 
 27 60 
 28 170 
 29 50 
 30 180 
 31 120 
 32 30 
 33 90 
 34 50 
 35 140 
 36 160 
 37 120 
 38 40 
 39 40 
 40 200 
 41 230 
 42 20 
 43 20 
 44 120 
 45 100 
 46 40 
 47 120 
 48 120 
 49 180 
 50 120 
 51 200 
 52 70 
 53 90 
 54 30 
 55 60 
 56 20 
 57 90 
 58 120 
 59 120 
 60 40 
 61 40 
 62 30 
 63 40 
 64 90 
 65 30 
 66 30 
 67 40 
 68 180 
 69 80 
 70 430 
 71 120 
 72 50 
 73 150 
 74 120 
 75 40 
 76 120 
 77 150 
 78 30 
 79 90 
 80 30 
 81 90 
 82 70 
 83 20 
 84 60 
 85 60 
 86 60 
 87 60 
 88 130 
 89 240 
 90 150 
 91 380 
 92 230 
 93 110 
 94 110 
 95 150 
 96 120 
 97 30 
 98 120 
 99 310 
 100 140 
 101 120 
 102 30 
 103 40 
 104 90 
 105 30 
 106 90 
 107 30 
 108 60 
 109 20 
 110 60 
 111 20 
 112 60 
 113 20 
 114 60 
 115 20 
 116 20 
 117 20 
 118 30 
 119 90 
 120 90 
 121 40 
 122 90 
 123 30 
 124 30 
 125 120 
 126 120 
 127 90 
 128 30 
 129 30 
 130 120 
 131 160 
 132 170 
 133 120 
 134 40 
 135 280 
 136 50 
 137 40 
 138 120 
 139 90 
 140 30 
 141 60 
 142 170 
 143 130 
 144 120 
 145 40 
 146 120 
 147 30 
 148 260 
 149 110 
 150 160 
 151 130 
 152 110 
 153 110 
 154 90 
 155 40 
 156 120 
 157 40 
 158 90 
 159 40 
 160 120 
 161 30 
 162 140 
 163 120 
 164 30 
 165 30 
 166 30 
 167 250 
 168 70 
 169 110 
 170 100 
 171 60 
 172 460 
 173 90 
 174 30 
 175 150 
 176 170 
 177 40 
EOF
